Traveling Salesman Problem/TSP_generados/Aleatorio1621103283_8.tsp
NAME: Aleatorio1621103283_8.tsp
COMMENT: Randomly generated scenario
TYPE: TSP
DIMENSION: 8
EDGE_WEIGHT_TYPE: ATT
NODE_COORD_SECTION
1 1.73 20.54
2 11.85 15.36
3 34.25 19.86
4 36.34 43.37
5 19.88 28.79
6 1.27 27.69
7 1.71 17.76
8 12.29 33.47
