Traveling Salesman Problem/TSP_generados/Aleatorio1621103283_8.opt.tour
NAME: Aleatorio1621103283_8.opt.tour
COMMENT: Optimal solution for Aleatorio1621103283_8 (110.1647686783424)
TYPE: TOUR
DIMENSION: 8
TOUR_SECTION
1 7 2 3 4 5 8 6
-1
EOF
